(declare-fun c () String)
(declare-fun g () String)
(declare-fun b () String)
(declare-fun f () String)
(declare-fun a () String)
(declare-fun h () String)
(assert (= (str.++ a "e" c "gd") f))
(assert (= h (str.++ b g f b "h")))
(assert (= a (str.++ "db" c)))

(check-sat)
